p cnf 421 1680
c p weight 172 0 0
c p weight -172 1 0
c p weight 173 1.0 0
c p weight -173 1 0
168 -167 165 0
168 -167 166 0
-168 167 165 0
-168 167 166 0
168 167 -165 -166 0
-168 -167 -165 -166 0
169 165 -166 0
169 -165 166 0
-169 165 166 0
-169 -165 -166 0
170 171 -168 0
170 -168 169 0
-170 171 168 0
-170 168 169 0
170 -168 -165 0
-170 168 -165 0
170 -171 168 165 -169 0
-170 -171 -168 165 -169 0
171 -165 169 0
-171 165 169 0
-172 169 0
171 -172 -165 0
-171 -172 165 0
171 172 165 -169 0
-171 172 -165 -169 0
-173 169 0
171 -173 165 0
-171 -173 -165 0
171 173 -165 -169 0
-171 173 165 -169 0
174 -170 171 0
174 -170 169 0
-174 170 171 0
-174 170 169 0
174 170 -171 -169 0
-174 -170 -171 -169 0
175 171 -169 0
175 -171 169 0
-175 171 169 0
-175 -171 -169 0
176 -174 171 0
176 -174 164 0
-176 174 171 0
-176 174 164 0
176 -174 163 -175 0
176 -174 -163 175 0
-176 174 163 -175 0
-176 174 -163 175 0
176 174 -171 163 175 -164 0
176 174 -171 -163 -175 -164 0
-176 -174 -171 163 175 -164 0
-176 -174 -171 -163 -175 -164 0
178 171 -163 0
178 -171 163 0
-178 171 163 0
-178 -171 -163 0
177 175 -164 0
177 -175 164 0
-177 175 164 0
-177 -175 -164 0
179 -176 178 0
179 -176 162 0
-179 176 178 0
-179 176 162 0
179 -176 161 -164 0
179 -176 -161 164 0
-179 176 161 -164 0
-179 176 -161 164 0
179 176 -178 161 164 -162 0
179 176 -178 -161 -164 -162 0
-179 -176 -178 161 164 -162 0
-179 -176 -178 -161 -164 -162 0
181 178 -161 0
181 -178 161 0
-181 178 161 0
-181 -178 -161 0
180 164 -162 0
180 -164 162 0
-180 164 162 0
-180 -164 -162 0
182 -179 181 0
182 -179 160 0
-182 179 181 0
-182 179 160 0
182 -179 159 -162 0
182 -179 -159 162 0
-182 179 159 -162 0
-182 179 -159 162 0
182 179 -181 159 162 -160 0
182 179 -181 -159 -162 -160 0
-182 -179 -181 159 162 -160 0
-182 -179 -181 -159 -162 -160 0
184 181 -159 0
184 -181 159 0
-184 181 159 0
-184 -181 -159 0
183 162 -160 0
183 -162 160 0
-183 162 160 0
-183 -162 -160 0
185 -182 184 0
185 -182 158 0
-185 182 184 0
-185 182 158 0
185 -182 157 -160 0
185 -182 -157 160 0
-185 182 157 -160 0
-185 182 -157 160 0
185 182 -184 157 160 -158 0
185 182 -184 -157 -160 -158 0
-185 -182 -184 157 160 -158 0
-185 -182 -184 -157 -160 -158 0
187 184 -157 0
187 -184 157 0
-187 184 157 0
-187 -184 -157 0
186 160 -158 0
186 -160 158 0
-186 160 158 0
-186 -160 -158 0
188 -185 187 0
188 -185 156 0
-188 185 187 0
-188 185 156 0
188 -185 155 -158 0
188 -185 -155 158 0
-188 185 155 -158 0
-188 185 -155 158 0
188 185 -187 155 158 -156 0
188 185 -187 -155 -158 -156 0
-188 -185 -187 155 158 -156 0
-188 -185 -187 -155 -158 -156 0
190 187 -155 0
190 -187 155 0
-190 187 155 0
-190 -187 -155 0
189 158 -156 0
189 -158 156 0
-189 158 156 0
-189 -158 -156 0
191 -188 190 0
191 -188 154 0
-191 188 190 0
-191 188 154 0
191 -188 153 -156 0
191 -188 -153 156 0
-191 188 153 -156 0
-191 188 -153 156 0
191 188 -190 153 156 -154 0
191 188 -190 -153 -156 -154 0
-191 -188 -190 153 156 -154 0
-191 -188 -190 -153 -156 -154 0
193 190 -153 0
193 -190 153 0
-193 190 153 0
-193 -190 -153 0
192 156 -154 0
192 -156 154 0
-192 156 154 0
-192 -156 -154 0
194 -191 193 0
194 -191 152 0
-194 191 193 0
-194 191 152 0
194 -191 151 -154 0
194 -191 -151 154 0
-194 191 151 -154 0
-194 191 -151 154 0
194 191 -193 151 154 -152 0
194 191 -193 -151 -154 -152 0
-194 -191 -193 151 154 -152 0
-194 -191 -193 -151 -154 -152 0
196 193 -151 0
196 -193 151 0
-196 193 151 0
-196 -193 -151 0
195 154 -152 0
195 -154 152 0
-195 154 152 0
-195 -154 -152 0
197 -194 196 0
197 -194 150 0
-197 194 196 0
-197 194 150 0
197 -194 149 -152 0
197 -194 -149 152 0
-197 194 149 -152 0
-197 194 -149 152 0
197 194 -196 149 152 -150 0
197 194 -196 -149 -152 -150 0
-197 -194 -196 149 152 -150 0
-197 -194 -196 -149 -152 -150 0
199 196 -149 0
199 -196 149 0
-199 196 149 0
-199 -196 -149 0
198 152 -150 0
198 -152 150 0
-198 152 150 0
-198 -152 -150 0
200 -197 199 0
200 -197 148 0
-200 197 199 0
-200 197 148 0
200 -197 147 -150 0
200 -197 -147 150 0
-200 197 147 -150 0
-200 197 -147 150 0
200 197 -199 147 150 -148 0
200 197 -199 -147 -150 -148 0
-200 -197 -199 147 150 -148 0
-200 -197 -199 -147 -150 -148 0
202 199 -147 0
202 -199 147 0
-202 199 147 0
-202 -199 -147 0
201 150 -148 0
201 -150 148 0
-201 150 148 0
-201 -150 -148 0
203 -200 202 0
203 -200 146 0
-203 200 202 0
-203 200 146 0
203 -200 145 -148 0
203 -200 -145 148 0
-203 200 145 -148 0
-203 200 -145 148 0
203 200 -202 145 148 -146 0
203 200 -202 -145 -148 -146 0
-203 -200 -202 145 148 -146 0
-203 -200 -202 -145 -148 -146 0
205 202 -145 0
205 -202 145 0
-205 202 145 0
-205 -202 -145 0
204 148 -146 0
204 -148 146 0
-204 148 146 0
-204 -148 -146 0
206 -203 205 0
206 -203 144 0
-206 203 205 0
-206 203 144 0
206 -203 143 -146 0
206 -203 -143 146 0
-206 203 143 -146 0
-206 203 -143 146 0
206 203 -205 143 146 -144 0
206 203 -205 -143 -146 -144 0
-206 -203 -205 143 146 -144 0
-206 -203 -205 -143 -146 -144 0
208 205 -143 0
208 -205 143 0
-208 205 143 0
-208 -205 -143 0
207 146 -144 0
207 -146 144 0
-207 146 144 0
-207 -146 -144 0
209 -206 208 0
209 -206 142 0
-209 206 208 0
-209 206 142 0
209 -206 141 -144 0
209 -206 -141 144 0
-209 206 141 -144 0
-209 206 -141 144 0
209 206 -208 141 144 -142 0
209 206 -208 -141 -144 -142 0
-209 -206 -208 141 144 -142 0
-209 -206 -208 -141 -144 -142 0
211 208 -141 0
211 -208 141 0
-211 208 141 0
-211 -208 -141 0
210 144 -142 0
210 -144 142 0
-210 144 142 0
-210 -144 -142 0
212 -209 211 0
212 -209 140 0
-212 209 211 0
-212 209 140 0
212 -209 139 -142 0
212 -209 -139 142 0
-212 209 139 -142 0
-212 209 -139 142 0
212 209 -211 139 142 -140 0
212 209 -211 -139 -142 -140 0
-212 -209 -211 139 142 -140 0
-212 -209 -211 -139 -142 -140 0
214 211 -139 0
214 -211 139 0
-214 211 139 0
-214 -211 -139 0
213 142 -140 0
213 -142 140 0
-213 142 140 0
-213 -142 -140 0
215 -212 214 0
215 -212 138 0
-215 212 214 0
-215 212 138 0
215 -212 137 -140 0
215 -212 -137 140 0
-215 212 137 -140 0
-215 212 -137 140 0
215 212 -214 137 140 -138 0
215 212 -214 -137 -140 -138 0
-215 -212 -214 137 140 -138 0
-215 -212 -214 -137 -140 -138 0
217 214 -137 0
217 -214 137 0
-217 214 137 0
-217 -214 -137 0
216 140 -138 0
216 -140 138 0
-216 140 138 0
-216 -140 -138 0
218 -215 217 0
218 -215 136 0
-218 215 217 0
-218 215 136 0
218 -215 135 -138 0
218 -215 -135 138 0
-218 215 135 -138 0
-218 215 -135 138 0
218 215 -217 135 138 -136 0
218 215 -217 -135 -138 -136 0
-218 -215 -217 135 138 -136 0
-218 -215 -217 -135 -138 -136 0
220 217 -135 0
220 -217 135 0
-220 217 135 0
-220 -217 -135 0
219 138 -136 0
219 -138 136 0
-219 138 136 0
-219 -138 -136 0
221 -218 220 0
221 -218 134 0
-221 218 220 0
-221 218 134 0
221 -218 133 -136 0
221 -218 -133 136 0
-221 218 133 -136 0
-221 218 -133 136 0
221 218 -220 133 136 -134 0
221 218 -220 -133 -136 -134 0
-221 -218 -220 133 136 -134 0
-221 -218 -220 -133 -136 -134 0
223 220 -133 0
223 -220 133 0
-223 220 133 0
-223 -220 -133 0
222 136 -134 0
222 -136 134 0
-222 136 134 0
-222 -136 -134 0
224 -221 223 0
224 -221 132 0
-224 221 223 0
-224 221 132 0
224 -221 131 -134 0
224 -221 -131 134 0
-224 221 131 -134 0
-224 221 -131 134 0
224 221 -223 131 134 -132 0
224 221 -223 -131 -134 -132 0
-224 -221 -223 131 134 -132 0
-224 -221 -223 -131 -134 -132 0
226 223 -131 0
226 -223 131 0
-226 223 131 0
-226 -223 -131 0
225 134 -132 0
225 -134 132 0
-225 134 132 0
-225 -134 -132 0
227 -224 226 0
227 -224 130 0
-227 224 226 0
-227 224 130 0
227 -224 129 -132 0
227 -224 -129 132 0
-227 224 129 -132 0
-227 224 -129 132 0
227 224 -226 129 132 -130 0
227 224 -226 -129 -132 -130 0
-227 -224 -226 129 132 -130 0
-227 -224 -226 -129 -132 -130 0
229 226 -129 0
229 -226 129 0
-229 226 129 0
-229 -226 -129 0
228 132 -130 0
228 -132 130 0
-228 132 130 0
-228 -132 -130 0
230 -227 229 0
230 -227 128 0
-230 227 229 0
-230 227 128 0
230 -227 127 -130 0
230 -227 -127 130 0
-230 227 127 -130 0
-230 227 -127 130 0
230 227 -229 127 130 -128 0
230 227 -229 -127 -130 -128 0
-230 -227 -229 127 130 -128 0
-230 -227 -229 -127 -130 -128 0
232 229 -127 0
232 -229 127 0
-232 229 127 0
-232 -229 -127 0
231 130 -128 0
231 -130 128 0
-231 130 128 0
-231 -130 -128 0
233 -230 232 0
233 -230 126 0
-233 230 232 0
-233 230 126 0
233 -230 125 -128 0
233 -230 -125 128 0
-233 230 125 -128 0
-233 230 -125 128 0
233 230 -232 125 128 -126 0
233 230 -232 -125 -128 -126 0
-233 -230 -232 125 128 -126 0
-233 -230 -232 -125 -128 -126 0
235 232 -125 0
235 -232 125 0
-235 232 125 0
-235 -232 -125 0
234 128 -126 0
234 -128 126 0
-234 128 126 0
-234 -128 -126 0
236 -233 235 0
236 -233 124 0
-236 233 235 0
-236 233 124 0
236 -233 123 -126 0
236 -233 -123 126 0
-236 233 123 -126 0
-236 233 -123 126 0
236 233 -235 123 126 -124 0
236 233 -235 -123 -126 -124 0
-236 -233 -235 123 126 -124 0
-236 -233 -235 -123 -126 -124 0
238 235 -123 0
238 -235 123 0
-238 235 123 0
-238 -235 -123 0
237 126 -124 0
237 -126 124 0
-237 126 124 0
-237 -126 -124 0
239 -236 238 0
239 -236 122 0
-239 236 238 0
-239 236 122 0
239 -236 121 -124 0
239 -236 -121 124 0
-239 236 121 -124 0
-239 236 -121 124 0
239 236 -238 121 124 -122 0
239 236 -238 -121 -124 -122 0
-239 -236 -238 121 124 -122 0
-239 -236 -238 -121 -124 -122 0
241 238 -121 0
241 -238 121 0
-241 238 121 0
-241 -238 -121 0
240 124 -122 0
240 -124 122 0
-240 124 122 0
-240 -124 -122 0
242 -239 241 0
242 -239 120 0
-242 239 241 0
-242 239 120 0
242 -239 119 -122 0
242 -239 -119 122 0
-242 239 119 -122 0
-242 239 -119 122 0
242 239 -241 119 122 -120 0
242 239 -241 -119 -122 -120 0
-242 -239 -241 119 122 -120 0
-242 -239 -241 -119 -122 -120 0
244 241 -119 0
244 -241 119 0
-244 241 119 0
-244 -241 -119 0
243 122 -120 0
243 -122 120 0
-243 122 120 0
-243 -122 -120 0
245 -242 244 0
245 -242 118 0
-245 242 244 0
-245 242 118 0
245 -242 117 -120 0
245 -242 -117 120 0
-245 242 117 -120 0
-245 242 -117 120 0
245 242 -244 117 120 -118 0
245 242 -244 -117 -120 -118 0
-245 -242 -244 117 120 -118 0
-245 -242 -244 -117 -120 -118 0
247 244 -117 0
247 -244 117 0
-247 244 117 0
-247 -244 -117 0
246 120 -118 0
246 -120 118 0
-246 120 118 0
-246 -120 -118 0
248 -245 247 0
248 -245 116 0
-248 245 247 0
-248 245 116 0
248 -245 115 -118 0
248 -245 -115 118 0
-248 245 115 -118 0
-248 245 -115 118 0
248 245 -247 115 118 -116 0
248 245 -247 -115 -118 -116 0
-248 -245 -247 115 118 -116 0
-248 -245 -247 -115 -118 -116 0
250 247 -115 0
250 -247 115 0
-250 247 115 0
-250 -247 -115 0
249 118 -116 0
249 -118 116 0
-249 118 116 0
-249 -118 -116 0
251 -248 250 0
251 -248 114 0
-251 248 250 0
-251 248 114 0
251 -248 113 -116 0
251 -248 -113 116 0
-251 248 113 -116 0
-251 248 -113 116 0
251 248 -250 113 116 -114 0
251 248 -250 -113 -116 -114 0
-251 -248 -250 113 116 -114 0
-251 -248 -250 -113 -116 -114 0
253 250 -113 0
253 -250 113 0
-253 250 113 0
-253 -250 -113 0
252 116 -114 0
252 -116 114 0
-252 116 114 0
-252 -116 -114 0
254 -251 253 0
254 -251 112 0
-254 251 253 0
-254 251 112 0
254 -251 111 -114 0
254 -251 -111 114 0
-254 251 111 -114 0
-254 251 -111 114 0
254 251 -253 111 114 -112 0
254 251 -253 -111 -114 -112 0
-254 -251 -253 111 114 -112 0
-254 -251 -253 -111 -114 -112 0
256 253 -111 0
256 -253 111 0
-256 253 111 0
-256 -253 -111 0
255 114 -112 0
255 -114 112 0
-255 114 112 0
-255 -114 -112 0
257 -254 256 0
257 -254 110 0
-257 254 256 0
-257 254 110 0
257 -254 109 -112 0
257 -254 -109 112 0
-257 254 109 -112 0
-257 254 -109 112 0
257 254 -256 109 112 -110 0
257 254 -256 -109 -112 -110 0
-257 -254 -256 109 112 -110 0
-257 -254 -256 -109 -112 -110 0
259 256 -109 0
259 -256 109 0
-259 256 109 0
-259 -256 -109 0
258 112 -110 0
258 -112 110 0
-258 112 110 0
-258 -112 -110 0
260 -257 259 0
260 -257 108 0
-260 257 259 0
-260 257 108 0
260 -257 107 -110 0
260 -257 -107 110 0
-260 257 107 -110 0
-260 257 -107 110 0
260 257 -259 107 110 -108 0
260 257 -259 -107 -110 -108 0
-260 -257 -259 107 110 -108 0
-260 -257 -259 -107 -110 -108 0
262 259 -107 0
262 -259 107 0
-262 259 107 0
-262 -259 -107 0
261 110 -108 0
261 -110 108 0
-261 110 108 0
-261 -110 -108 0
263 -260 262 0
263 -260 106 0
-263 260 262 0
-263 260 106 0
263 -260 105 -108 0
263 -260 -105 108 0
-263 260 105 -108 0
-263 260 -105 108 0
263 260 -262 105 108 -106 0
263 260 -262 -105 -108 -106 0
-263 -260 -262 105 108 -106 0
-263 -260 -262 -105 -108 -106 0
265 262 -105 0
265 -262 105 0
-265 262 105 0
-265 -262 -105 0
264 108 -106 0
264 -108 106 0
-264 108 106 0
-264 -108 -106 0
266 -263 265 0
266 -263 104 0
-266 263 265 0
-266 263 104 0
266 -263 103 -106 0
266 -263 -103 106 0
-266 263 103 -106 0
-266 263 -103 106 0
266 263 -265 103 106 -104 0
266 263 -265 -103 -106 -104 0
-266 -263 -265 103 106 -104 0
-266 -263 -265 -103 -106 -104 0
268 265 -103 0
268 -265 103 0
-268 265 103 0
-268 -265 -103 0
267 106 -104 0
267 -106 104 0
-267 106 104 0
-267 -106 -104 0
269 -266 268 0
269 -266 102 0
-269 266 268 0
-269 266 102 0
269 -266 101 -104 0
269 -266 -101 104 0
-269 266 101 -104 0
-269 266 -101 104 0
269 266 -268 101 104 -102 0
269 266 -268 -101 -104 -102 0
-269 -266 -268 101 104 -102 0
-269 -266 -268 -101 -104 -102 0
271 268 -101 0
271 -268 101 0
-271 268 101 0
-271 -268 -101 0
270 104 -102 0
270 -104 102 0
-270 104 102 0
-270 -104 -102 0
272 -269 271 0
272 -269 100 0
-272 269 271 0
-272 269 100 0
272 -269 99 -102 0
272 -269 -99 102 0
-272 269 99 -102 0
-272 269 -99 102 0
272 269 -271 99 102 -100 0
272 269 -271 -99 -102 -100 0
-272 -269 -271 99 102 -100 0
-272 -269 -271 -99 -102 -100 0
274 271 -99 0
274 -271 99 0
-274 271 99 0
-274 -271 -99 0
273 102 -100 0
273 -102 100 0
-273 102 100 0
-273 -102 -100 0
275 -272 274 0
275 -272 98 0
-275 272 274 0
-275 272 98 0
275 -272 97 -100 0
275 -272 -97 100 0
-275 272 97 -100 0
-275 272 -97 100 0
275 272 -274 97 100 -98 0
275 272 -274 -97 -100 -98 0
-275 -272 -274 97 100 -98 0
-275 -272 -274 -97 -100 -98 0
277 274 -97 0
277 -274 97 0
-277 274 97 0
-277 -274 -97 0
276 100 -98 0
276 -100 98 0
-276 100 98 0
-276 -100 -98 0
278 -275 277 0
278 -275 96 0
-278 275 277 0
-278 275 96 0
278 -275 95 -98 0
278 -275 -95 98 0
-278 275 95 -98 0
-278 275 -95 98 0
278 275 -277 95 98 -96 0
278 275 -277 -95 -98 -96 0
-278 -275 -277 95 98 -96 0
-278 -275 -277 -95 -98 -96 0
280 277 -95 0
280 -277 95 0
-280 277 95 0
-280 -277 -95 0
279 98 -96 0
279 -98 96 0
-279 98 96 0
-279 -98 -96 0
281 -278 280 0
281 -278 94 0
-281 278 280 0
-281 278 94 0
281 -278 93 -96 0
281 -278 -93 96 0
-281 278 93 -96 0
-281 278 -93 96 0
281 278 -280 93 96 -94 0
281 278 -280 -93 -96 -94 0
-281 -278 -280 93 96 -94 0
-281 -278 -280 -93 -96 -94 0
283 280 -93 0
283 -280 93 0
-283 280 93 0
-283 -280 -93 0
282 96 -94 0
282 -96 94 0
-282 96 94 0
-282 -96 -94 0
284 -281 283 0
284 -281 92 0
-284 281 283 0
-284 281 92 0
284 -281 91 -94 0
284 -281 -91 94 0
-284 281 91 -94 0
-284 281 -91 94 0
284 281 -283 91 94 -92 0
284 281 -283 -91 -94 -92 0
-284 -281 -283 91 94 -92 0
-284 -281 -283 -91 -94 -92 0
286 283 -91 0
286 -283 91 0
-286 283 91 0
-286 -283 -91 0
285 94 -92 0
285 -94 92 0
-285 94 92 0
-285 -94 -92 0
287 -284 286 0
287 -284 90 0
-287 284 286 0
-287 284 90 0
287 -284 89 -92 0
287 -284 -89 92 0
-287 284 89 -92 0
-287 284 -89 92 0
287 284 -286 89 92 -90 0
287 284 -286 -89 -92 -90 0
-287 -284 -286 89 92 -90 0
-287 -284 -286 -89 -92 -90 0
289 286 -89 0
289 -286 89 0
-289 286 89 0
-289 -286 -89 0
288 92 -90 0
288 -92 90 0
-288 92 90 0
-288 -92 -90 0
290 -287 289 0
290 -287 88 0
-290 287 289 0
-290 287 88 0
290 -287 87 -90 0
290 -287 -87 90 0
-290 287 87 -90 0
-290 287 -87 90 0
290 287 -289 87 90 -88 0
290 287 -289 -87 -90 -88 0
-290 -287 -289 87 90 -88 0
-290 -287 -289 -87 -90 -88 0
292 289 -87 0
292 -289 87 0
-292 289 87 0
-292 -289 -87 0
291 90 -88 0
291 -90 88 0
-291 90 88 0
-291 -90 -88 0
293 -290 292 0
293 -290 86 0
-293 290 292 0
-293 290 86 0
293 -290 85 -88 0
293 -290 -85 88 0
-293 290 85 -88 0
-293 290 -85 88 0
293 290 -292 85 88 -86 0
293 290 -292 -85 -88 -86 0
-293 -290 -292 85 88 -86 0
-293 -290 -292 -85 -88 -86 0
295 292 -85 0
295 -292 85 0
-295 292 85 0
-295 -292 -85 0
294 88 -86 0
294 -88 86 0
-294 88 86 0
-294 -88 -86 0
296 -293 295 0
296 -293 84 0
-296 293 295 0
-296 293 84 0
296 -293 83 -86 0
296 -293 -83 86 0
-296 293 83 -86 0
-296 293 -83 86 0
296 293 -295 83 86 -84 0
296 293 -295 -83 -86 -84 0
-296 -293 -295 83 86 -84 0
-296 -293 -295 -83 -86 -84 0
298 295 -83 0
298 -295 83 0
-298 295 83 0
-298 -295 -83 0
297 86 -84 0
297 -86 84 0
-297 86 84 0
-297 -86 -84 0
299 -296 298 0
299 -296 82 0
-299 296 298 0
-299 296 82 0
299 -296 81 -84 0
299 -296 -81 84 0
-299 296 81 -84 0
-299 296 -81 84 0
299 296 -298 81 84 -82 0
299 296 -298 -81 -84 -82 0
-299 -296 -298 81 84 -82 0
-299 -296 -298 -81 -84 -82 0
301 298 -81 0
301 -298 81 0
-301 298 81 0
-301 -298 -81 0
300 84 -82 0
300 -84 82 0
-300 84 82 0
-300 -84 -82 0
302 -299 301 0
302 -299 80 0
-302 299 301 0
-302 299 80 0
302 -299 79 -82 0
302 -299 -79 82 0
-302 299 79 -82 0
-302 299 -79 82 0
302 299 -301 79 82 -80 0
302 299 -301 -79 -82 -80 0
-302 -299 -301 79 82 -80 0
-302 -299 -301 -79 -82 -80 0
304 301 -79 0
304 -301 79 0
-304 301 79 0
-304 -301 -79 0
303 82 -80 0
303 -82 80 0
-303 82 80 0
-303 -82 -80 0
305 -302 304 0
305 -302 78 0
-305 302 304 0
-305 302 78 0
305 -302 77 -80 0
305 -302 -77 80 0
-305 302 77 -80 0
-305 302 -77 80 0
305 302 -304 77 80 -78 0
305 302 -304 -77 -80 -78 0
-305 -302 -304 77 80 -78 0
-305 -302 -304 -77 -80 -78 0
307 304 -77 0
307 -304 77 0
-307 304 77 0
-307 -304 -77 0
306 80 -78 0
306 -80 78 0
-306 80 78 0
-306 -80 -78 0
308 -305 307 0
308 -305 76 0
-308 305 307 0
-308 305 76 0
308 -305 75 -78 0
308 -305 -75 78 0
-308 305 75 -78 0
-308 305 -75 78 0
308 305 -307 75 78 -76 0
308 305 -307 -75 -78 -76 0
-308 -305 -307 75 78 -76 0
-308 -305 -307 -75 -78 -76 0
310 307 -75 0
310 -307 75 0
-310 307 75 0
-310 -307 -75 0
309 78 -76 0
309 -78 76 0
-309 78 76 0
-309 -78 -76 0
311 -308 310 0
311 -308 74 0
-311 308 310 0
-311 308 74 0
311 -308 73 -76 0
311 -308 -73 76 0
-311 308 73 -76 0
-311 308 -73 76 0
311 308 -310 73 76 -74 0
311 308 -310 -73 -76 -74 0
-311 -308 -310 73 76 -74 0
-311 -308 -310 -73 -76 -74 0
313 310 -73 0
313 -310 73 0
-313 310 73 0
-313 -310 -73 0
312 76 -74 0
312 -76 74 0
-312 76 74 0
-312 -76 -74 0
314 -311 313 0
314 -311 72 0
-314 311 313 0
-314 311 72 0
314 -311 71 -74 0
314 -311 -71 74 0
-314 311 71 -74 0
-314 311 -71 74 0
314 311 -313 71 74 -72 0
314 311 -313 -71 -74 -72 0
-314 -311 -313 71 74 -72 0
-314 -311 -313 -71 -74 -72 0
316 313 -71 0
316 -313 71 0
-316 313 71 0
-316 -313 -71 0
315 74 -72 0
315 -74 72 0
-315 74 72 0
-315 -74 -72 0
317 -314 316 0
317 -314 70 0
-317 314 316 0
-317 314 70 0
317 -314 69 -72 0
317 -314 -69 72 0
-317 314 69 -72 0
-317 314 -69 72 0
317 314 -316 69 72 -70 0
317 314 -316 -69 -72 -70 0
-317 -314 -316 69 72 -70 0
-317 -314 -316 -69 -72 -70 0
319 316 -69 0
319 -316 69 0
-319 316 69 0
-319 -316 -69 0
318 72 -70 0
318 -72 70 0
-318 72 70 0
-318 -72 -70 0
320 -317 319 0
320 -317 68 0
-320 317 319 0
-320 317 68 0
320 -317 67 -70 0
320 -317 -67 70 0
-320 317 67 -70 0
-320 317 -67 70 0
320 317 -319 67 70 -68 0
320 317 -319 -67 -70 -68 0
-320 -317 -319 67 70 -68 0
-320 -317 -319 -67 -70 -68 0
322 319 -67 0
322 -319 67 0
-322 319 67 0
-322 -319 -67 0
321 70 -68 0
321 -70 68 0
-321 70 68 0
-321 -70 -68 0
323 -320 322 0
323 -320 66 0
-323 320 322 0
-323 320 66 0
323 -320 65 -68 0
323 -320 -65 68 0
-323 320 65 -68 0
-323 320 -65 68 0
323 320 -322 65 68 -66 0
323 320 -322 -65 -68 -66 0
-323 -320 -322 65 68 -66 0
-323 -320 -322 -65 -68 -66 0
325 322 -65 0
325 -322 65 0
-325 322 65 0
-325 -322 -65 0
324 68 -66 0
324 -68 66 0
-324 68 66 0
-324 -68 -66 0
326 -323 325 0
326 -323 64 0
-326 323 325 0
-326 323 64 0
326 -323 63 -66 0
326 -323 -63 66 0
-326 323 63 -66 0
-326 323 -63 66 0
326 323 -325 63 66 -64 0
326 323 -325 -63 -66 -64 0
-326 -323 -325 63 66 -64 0
-326 -323 -325 -63 -66 -64 0
328 325 -63 0
328 -325 63 0
-328 325 63 0
-328 -325 -63 0
327 66 -64 0
327 -66 64 0
-327 66 64 0
-327 -66 -64 0
329 -326 328 0
329 -326 62 0
-329 326 328 0
-329 326 62 0
329 -326 61 -64 0
329 -326 -61 64 0
-329 326 61 -64 0
-329 326 -61 64 0
329 326 -328 61 64 -62 0
329 326 -328 -61 -64 -62 0
-329 -326 -328 61 64 -62 0
-329 -326 -328 -61 -64 -62 0
331 328 -61 0
331 -328 61 0
-331 328 61 0
-331 -328 -61 0
330 64 -62 0
330 -64 62 0
-330 64 62 0
-330 -64 -62 0
332 -329 331 0
332 -329 60 0
-332 329 331 0
-332 329 60 0
332 -329 59 -62 0
332 -329 -59 62 0
-332 329 59 -62 0
-332 329 -59 62 0
332 329 -331 59 62 -60 0
332 329 -331 -59 -62 -60 0
-332 -329 -331 59 62 -60 0
-332 -329 -331 -59 -62 -60 0
334 331 -59 0
334 -331 59 0
-334 331 59 0
-334 -331 -59 0
333 62 -60 0
333 -62 60 0
-333 62 60 0
-333 -62 -60 0
335 -332 334 0
335 -332 58 0
-335 332 334 0
-335 332 58 0
335 -332 57 -60 0
335 -332 -57 60 0
-335 332 57 -60 0
-335 332 -57 60 0
335 332 -334 57 60 -58 0
335 332 -334 -57 -60 -58 0
-335 -332 -334 57 60 -58 0
-335 -332 -334 -57 -60 -58 0
337 334 -57 0
337 -334 57 0
-337 334 57 0
-337 -334 -57 0
336 60 -58 0
336 -60 58 0
-336 60 58 0
-336 -60 -58 0
338 -335 337 0
338 -335 56 0
-338 335 337 0
-338 335 56 0
338 -335 55 -58 0
338 -335 -55 58 0
-338 335 55 -58 0
-338 335 -55 58 0
338 335 -337 55 58 -56 0
338 335 -337 -55 -58 -56 0
-338 -335 -337 55 58 -56 0
-338 -335 -337 -55 -58 -56 0
340 337 -55 0
340 -337 55 0
-340 337 55 0
-340 -337 -55 0
339 58 -56 0
339 -58 56 0
-339 58 56 0
-339 -58 -56 0
341 -338 340 0
341 -338 54 0
-341 338 340 0
-341 338 54 0
341 -338 53 -56 0
341 -338 -53 56 0
-341 338 53 -56 0
-341 338 -53 56 0
341 338 -340 53 56 -54 0
341 338 -340 -53 -56 -54 0
-341 -338 -340 53 56 -54 0
-341 -338 -340 -53 -56 -54 0
343 340 -53 0
343 -340 53 0
-343 340 53 0
-343 -340 -53 0
342 56 -54 0
342 -56 54 0
-342 56 54 0
-342 -56 -54 0
344 -341 343 0
344 -341 52 0
-344 341 343 0
-344 341 52 0
344 -341 51 -54 0
344 -341 -51 54 0
-344 341 51 -54 0
-344 341 -51 54 0
344 341 -343 51 54 -52 0
344 341 -343 -51 -54 -52 0
-344 -341 -343 51 54 -52 0
-344 -341 -343 -51 -54 -52 0
346 343 -51 0
346 -343 51 0
-346 343 51 0
-346 -343 -51 0
345 54 -52 0
345 -54 52 0
-345 54 52 0
-345 -54 -52 0
347 -344 346 0
347 -344 50 0
-347 344 346 0
-347 344 50 0
347 -344 49 -52 0
347 -344 -49 52 0
-347 344 49 -52 0
-347 344 -49 52 0
347 344 -346 49 52 -50 0
347 344 -346 -49 -52 -50 0
-347 -344 -346 49 52 -50 0
-347 -344 -346 -49 -52 -50 0
349 346 -49 0
349 -346 49 0
-349 346 49 0
-349 -346 -49 0
348 52 -50 0
348 -52 50 0
-348 52 50 0
-348 -52 -50 0
350 -347 349 0
350 -347 48 0
-350 347 349 0
-350 347 48 0
350 -347 47 -50 0
350 -347 -47 50 0
-350 347 47 -50 0
-350 347 -47 50 0
350 347 -349 47 50 -48 0
350 347 -349 -47 -50 -48 0
-350 -347 -349 47 50 -48 0
-350 -347 -349 -47 -50 -48 0
352 349 -47 0
352 -349 47 0
-352 349 47 0
-352 -349 -47 0
351 50 -48 0
351 -50 48 0
-351 50 48 0
-351 -50 -48 0
353 -350 352 0
353 -350 46 0
-353 350 352 0
-353 350 46 0
353 -350 45 -48 0
353 -350 -45 48 0
-353 350 45 -48 0
-353 350 -45 48 0
353 350 -352 45 48 -46 0
353 350 -352 -45 -48 -46 0
-353 -350 -352 45 48 -46 0
-353 -350 -352 -45 -48 -46 0
355 352 -45 0
355 -352 45 0
-355 352 45 0
-355 -352 -45 0
354 48 -46 0
354 -48 46 0
-354 48 46 0
-354 -48 -46 0
356 -353 355 0
356 -353 44 0
-356 353 355 0
-356 353 44 0
356 -353 43 -46 0
356 -353 -43 46 0
-356 353 43 -46 0
-356 353 -43 46 0
356 353 -355 43 46 -44 0
356 353 -355 -43 -46 -44 0
-356 -353 -355 43 46 -44 0
-356 -353 -355 -43 -46 -44 0
358 355 -43 0
358 -355 43 0
-358 355 43 0
-358 -355 -43 0
357 46 -44 0
357 -46 44 0
-357 46 44 0
-357 -46 -44 0
359 -356 358 0
359 -356 42 0
-359 356 358 0
-359 356 42 0
359 -356 41 -44 0
359 -356 -41 44 0
-359 356 41 -44 0
-359 356 -41 44 0
359 356 -358 41 44 -42 0
359 356 -358 -41 -44 -42 0
-359 -356 -358 41 44 -42 0
-359 -356 -358 -41 -44 -42 0
361 358 -41 0
361 -358 41 0
-361 358 41 0
-361 -358 -41 0
360 44 -42 0
360 -44 42 0
-360 44 42 0
-360 -44 -42 0
362 -359 361 0
362 -359 40 0
-362 359 361 0
-362 359 40 0
362 -359 39 -42 0
362 -359 -39 42 0
-362 359 39 -42 0
-362 359 -39 42 0
362 359 -361 39 42 -40 0
362 359 -361 -39 -42 -40 0
-362 -359 -361 39 42 -40 0
-362 -359 -361 -39 -42 -40 0
364 361 -39 0
364 -361 39 0
-364 361 39 0
-364 -361 -39 0
363 42 -40 0
363 -42 40 0
-363 42 40 0
-363 -42 -40 0
365 -362 364 0
365 -362 38 0
-365 362 364 0
-365 362 38 0
365 -362 37 -40 0
365 -362 -37 40 0
-365 362 37 -40 0
-365 362 -37 40 0
365 362 -364 37 40 -38 0
365 362 -364 -37 -40 -38 0
-365 -362 -364 37 40 -38 0
-365 -362 -364 -37 -40 -38 0
367 364 -37 0
367 -364 37 0
-367 364 37 0
-367 -364 -37 0
366 40 -38 0
366 -40 38 0
-366 40 38 0
-366 -40 -38 0
368 -365 367 0
368 -365 36 0
-368 365 367 0
-368 365 36 0
368 -365 35 -38 0
368 -365 -35 38 0
-368 365 35 -38 0
-368 365 -35 38 0
368 365 -367 35 38 -36 0
368 365 -367 -35 -38 -36 0
-368 -365 -367 35 38 -36 0
-368 -365 -367 -35 -38 -36 0
370 367 -35 0
370 -367 35 0
-370 367 35 0
-370 -367 -35 0
369 38 -36 0
369 -38 36 0
-369 38 36 0
-369 -38 -36 0
371 -368 370 0
371 -368 34 0
-371 368 370 0
-371 368 34 0
371 -368 33 -36 0
371 -368 -33 36 0
-371 368 33 -36 0
-371 368 -33 36 0
371 368 -370 33 36 -34 0
371 368 -370 -33 -36 -34 0
-371 -368 -370 33 36 -34 0
-371 -368 -370 -33 -36 -34 0
373 370 -33 0
373 -370 33 0
-373 370 33 0
-373 -370 -33 0
372 36 -34 0
372 -36 34 0
-372 36 34 0
-372 -36 -34 0
374 -371 373 0
374 -371 32 0
-374 371 373 0
-374 371 32 0
374 -371 31 -34 0
374 -371 -31 34 0
-374 371 31 -34 0
-374 371 -31 34 0
374 371 -373 31 34 -32 0
374 371 -373 -31 -34 -32 0
-374 -371 -373 31 34 -32 0
-374 -371 -373 -31 -34 -32 0
376 373 -31 0
376 -373 31 0
-376 373 31 0
-376 -373 -31 0
375 34 -32 0
375 -34 32 0
-375 34 32 0
-375 -34 -32 0
377 -374 376 0
377 -374 30 0
-377 374 376 0
-377 374 30 0
377 -374 29 -32 0
377 -374 -29 32 0
-377 374 29 -32 0
-377 374 -29 32 0
377 374 -376 29 32 -30 0
377 374 -376 -29 -32 -30 0
-377 -374 -376 29 32 -30 0
-377 -374 -376 -29 -32 -30 0
379 376 -29 0
379 -376 29 0
-379 376 29 0
-379 -376 -29 0
378 32 -30 0
378 -32 30 0
-378 32 30 0
-378 -32 -30 0
380 -377 379 0
380 -377 28 0
-380 377 379 0
-380 377 28 0
380 -377 27 -30 0
380 -377 -27 30 0
-380 377 27 -30 0
-380 377 -27 30 0
380 377 -379 27 30 -28 0
380 377 -379 -27 -30 -28 0
-380 -377 -379 27 30 -28 0
-380 -377 -379 -27 -30 -28 0
382 379 -27 0
382 -379 27 0
-382 379 27 0
-382 -379 -27 0
381 30 -28 0
381 -30 28 0
-381 30 28 0
-381 -30 -28 0
383 -380 382 0
383 -380 26 0
-383 380 382 0
-383 380 26 0
383 -380 25 -28 0
383 -380 -25 28 0
-383 380 25 -28 0
-383 380 -25 28 0
383 380 -382 25 28 -26 0
383 380 -382 -25 -28 -26 0
-383 -380 -382 25 28 -26 0
-383 -380 -382 -25 -28 -26 0
385 382 -25 0
385 -382 25 0
-385 382 25 0
-385 -382 -25 0
384 28 -26 0
384 -28 26 0
-384 28 26 0
-384 -28 -26 0
386 -383 385 0
386 -383 24 0
-386 383 385 0
-386 383 24 0
386 -383 23 -26 0
386 -383 -23 26 0
-386 383 23 -26 0
-386 383 -23 26 0
386 383 -385 23 26 -24 0
386 383 -385 -23 -26 -24 0
-386 -383 -385 23 26 -24 0
-386 -383 -385 -23 -26 -24 0
388 385 -23 0
388 -385 23 0
-388 385 23 0
-388 -385 -23 0
387 26 -24 0
387 -26 24 0
-387 26 24 0
-387 -26 -24 0
389 -386 388 0
389 -386 22 0
-389 386 388 0
-389 386 22 0
389 -386 21 -24 0
389 -386 -21 24 0
-389 386 21 -24 0
-389 386 -21 24 0
389 386 -388 21 24 -22 0
389 386 -388 -21 -24 -22 0
-389 -386 -388 21 24 -22 0
-389 -386 -388 -21 -24 -22 0
391 388 -21 0
391 -388 21 0
-391 388 21 0
-391 -388 -21 0
390 24 -22 0
390 -24 22 0
-390 24 22 0
-390 -24 -22 0
392 -389 391 0
392 -389 20 0
-392 389 391 0
-392 389 20 0
392 -389 19 -22 0
392 -389 -19 22 0
-392 389 19 -22 0
-392 389 -19 22 0
392 389 -391 19 22 -20 0
392 389 -391 -19 -22 -20 0
-392 -389 -391 19 22 -20 0
-392 -389 -391 -19 -22 -20 0
394 391 -19 0
394 -391 19 0
-394 391 19 0
-394 -391 -19 0
393 22 -20 0
393 -22 20 0
-393 22 20 0
-393 -22 -20 0
395 -392 394 0
395 -392 18 0
-395 392 394 0
-395 392 18 0
395 -392 17 -20 0
395 -392 -17 20 0
-395 392 17 -20 0
-395 392 -17 20 0
395 392 -394 17 20 -18 0
395 392 -394 -17 -20 -18 0
-395 -392 -394 17 20 -18 0
-395 -392 -394 -17 -20 -18 0
397 394 -17 0
397 -394 17 0
-397 394 17 0
-397 -394 -17 0
396 20 -18 0
396 -20 18 0
-396 20 18 0
-396 -20 -18 0
398 -395 397 0
398 -395 16 0
-398 395 397 0
-398 395 16 0
398 -395 15 -18 0
398 -395 -15 18 0
-398 395 15 -18 0
-398 395 -15 18 0
398 395 -397 15 18 -16 0
398 395 -397 -15 -18 -16 0
-398 -395 -397 15 18 -16 0
-398 -395 -397 -15 -18 -16 0
400 397 -15 0
400 -397 15 0
-400 397 15 0
-400 -397 -15 0
399 18 -16 0
399 -18 16 0
-399 18 16 0
-399 -18 -16 0
401 -398 400 0
401 -398 14 0
-401 398 400 0
-401 398 14 0
401 -398 13 -16 0
401 -398 -13 16 0
-401 398 13 -16 0
-401 398 -13 16 0
401 398 -400 13 16 -14 0
401 398 -400 -13 -16 -14 0
-401 -398 -400 13 16 -14 0
-401 -398 -400 -13 -16 -14 0
403 400 -13 0
403 -400 13 0
-403 400 13 0
-403 -400 -13 0
402 16 -14 0
402 -16 14 0
-402 16 14 0
-402 -16 -14 0
404 -401 403 0
404 -401 12 0
-404 401 403 0
-404 401 12 0
404 -401 11 -14 0
404 -401 -11 14 0
-404 401 11 -14 0
-404 401 -11 14 0
404 401 -403 11 14 -12 0
404 401 -403 -11 -14 -12 0
-404 -401 -403 11 14 -12 0
-404 -401 -403 -11 -14 -12 0
406 403 -11 0
406 -403 11 0
-406 403 11 0
-406 -403 -11 0
405 14 -12 0
405 -14 12 0
-405 14 12 0
-405 -14 -12 0
407 -404 406 0
407 -404 10 0
-407 404 406 0
-407 404 10 0
407 -404 9 -12 0
407 -404 -9 12 0
-407 404 9 -12 0
-407 404 -9 12 0
407 404 -406 9 12 -10 0
407 404 -406 -9 -12 -10 0
-407 -404 -406 9 12 -10 0
-407 -404 -406 -9 -12 -10 0
409 406 -9 0
409 -406 9 0
-409 406 9 0
-409 -406 -9 0
408 12 -10 0
408 -12 10 0
-408 12 10 0
-408 -12 -10 0
410 -407 409 0
410 -407 8 0
-410 407 409 0
-410 407 8 0
410 -407 7 -10 0
410 -407 -7 10 0
-410 407 7 -10 0
-410 407 -7 10 0
410 407 -409 7 10 -8 0
410 407 -409 -7 -10 -8 0
-410 -407 -409 7 10 -8 0
-410 -407 -409 -7 -10 -8 0
412 409 -7 0
412 -409 7 0
-412 409 7 0
-412 -409 -7 0
411 10 -8 0
411 -10 8 0
-411 10 8 0
-411 -10 -8 0
413 -410 412 0
413 -410 6 0
-413 410 412 0
-413 410 6 0
413 -410 5 -8 0
413 -410 -5 8 0
-413 410 5 -8 0
-413 410 -5 8 0
413 410 -412 5 8 -6 0
413 410 -412 -5 -8 -6 0
-413 -410 -412 5 8 -6 0
-413 -410 -412 -5 -8 -6 0
415 412 -5 0
415 -412 5 0
-415 412 5 0
-415 -412 -5 0
414 8 -6 0
414 -8 6 0
-414 8 6 0
-414 -8 -6 0
416 -413 415 0
416 -413 4 0
-416 413 415 0
-416 413 4 0
416 -413 3 -6 0
416 -413 -3 6 0
-416 413 3 -6 0
-416 413 -3 6 0
416 413 -415 3 6 -4 0
416 413 -415 -3 -6 -4 0
-416 -413 -415 3 6 -4 0
-416 -413 -415 -3 -6 -4 0
418 415 -3 0
418 -415 3 0
-418 415 3 0
-418 -415 -3 0
417 6 -4 0
417 -6 4 0
-417 6 4 0
-417 -6 -4 0
419 -416 418 0
419 -416 2 0
-419 416 418 0
-419 416 2 0
419 -416 1 -4 0
419 -416 -1 4 0
-419 416 1 -4 0
-419 416 -1 4 0
419 416 -418 1 4 -2 0
419 416 -418 -1 -4 -2 0
-419 -416 -418 1 4 -2 0
-419 -416 -418 -1 -4 -2 0
421 418 -1 0
421 -418 1 0
-421 418 1 0
-421 -418 -1 0
420 4 -2 0
420 -4 2 0
-420 4 2 0
-420 -4 -2 0
